
(set-logic ALL) 

(declare-datatype MyList ((Nil) (Cons (head Real) (tail MyList)) )) 
(declare-fun l0 () MyList) 
(declare-fun l1 () MyList) 
(declare-fun l2 () MyList) 
(declare-fun l3 () MyList) 
(declare-fun i0 () Real) 
(declare-fun i1 () Real) 
(assert (and (is-Nil l3) (= l0 Nil)) )
(assert (not (= l1 Nil)) )
(assert (is-Cons l3) )
(assert (is-Cons Nil) )
(assert (= l2 l2) )
(assert (not (is-Nil Nil)) )
(assert (is-Nil Nil) )
(assert (= l0 l2) )
(check-sat)
